% seed = 2155988

mint = 66;
% maxt = 247;

nActs = 42;
dur = [0,10,6,10,6,3,4,7,6,10,4,1,10,3,10,2,10,4,2,5,5,5,5,5,8,9,10,1,2,5,8,5,8,10,7,7,4,4,9,8,9,0];

nSkills = 4;
sreq = [| 0,0,0,0,
	| 2,6,3,0,
	| 5,0,6,0,
	| 7,5,1,2,
	| 0,0,4,4,
	| 1,2,0,3,
	| 6,3,0,3,
	| 2,3,0,5,
	| 3,5,5,2,
	| 0,4,0,4,
	| 4,5,2,3,
	| 2,6,3,2,
	| 7,3,0,0,
	| 0,0,5,5,
	| 7,1,2,1,
	| 4,6,0,7,
	| 2,3,1,4,
	| 5,7,0,0,
	| 0,7,0,4,
	| 1,4,2,5,
	| 4,0,2,4,
	| 4,3,0,4,
	| 6,0,0,7,
	| 3,2,4,3,
	| 2,4,0,7,
	| 7,0,0,7,
	| 4,5,4,0,
	| 4,0,0,6,
	| 2,3,4,7,
	| 6,0,0,5,
	| 2,0,3,3,
	| 1,3,2,4,
	| 0,4,1,6,
	| 5,4,2,7,
	| 2,6,3,2,
	| 7,4,0,0,
	| 0,6,5,4,
	| 6,0,1,4,
	| 5,6,6,0,
	| 0,7,3,6,
	| 0,6,5,0,
	| 0,0,0,0, |];

nResources = 30;
mastery = [| false,false,false,true,
	| false,true,true,false,
	| true,false,true,true,
	| false,true,true,true,
	| false,false,false,true,
	| false,true,true,true,
	| false,true,true,true,
	| false,false,false,true,
	| true,true,false,false,
	| true,true,false,false,
	| true,false,false,false,
	| false,false,false,true,
	| false,true,true,true,
	| false,true,false,false,
	| true,true,true,false,
	| false,false,false,true,
	| true,false,false,false,
	| false,false,true,true,
	| false,false,false,true,
	| true,true,true,false,
	| true,true,true,false,
	| true,true,false,false,
	| true,true,false,true,
	| false,true,true,true,
	| true,false,false,false,
	| true,true,false,true,
	| true,false,false,false,
	| true,false,true,false,
	| true,false,false,true,
	| false,true,true,true, |];

nPrecs = 85;
pred = [1,1,1,2,2,2,3,3,3,4,4,4,5,5,5,6,6,6,7,7,8,8,8,9,9,10,10,10,11,11,11,12,12,12,13,14,14,14,15,15,15,16,16,17,17,18,18,18,19,19,19,20,21,21,21,22,23,23,24,25,25,25,26,26,27,27,28,28,29,30,30,31,31,32,33,33,34,35,36,37,38,38,39,40,41];
succ = [2,3,4,11,5,7,28,13,6,27,15,8,12,14,30,33,23,31,17,15,9,10,21,30,32,20,14,30,17,18,13,21,27,13,37,40,36,16,26,28,22,19,22,25,20,26,22,23,35,37,24,39,35,31,23,38,34,24,29,33,26,40,34,32,29,31,35,29,32,33,36,38,40,36,34,37,41,39,38,41,41,39,42,42,42];

nUnrels = 402;
unpred = [2,2,2,2,2,2,3,3,3,3,3,3,3,3,3,3,3,3,3,3,3,3,3,3,3,3,3,4,4,4,4,4,4,4,4,4,5,5,5,5,5,5,5,5,5,5,5,5,5,6,6,6,6,6,6,6,6,6,6,6,6,6,6,6,6,6,6,6,6,6,6,7,7,7,7,7,7,7,7,7,7,7,7,7,7,7,7,8,8,8,8,8,8,8,8,8,8,9,9,9,9,9,9,9,9,9,9,9,9,9,9,9,9,9,9,9,9,9,9,9,10,10,10,10,10,10,10,10,10,10,10,10,10,11,11,11,11,11,11,11,11,11,11,11,12,12,12,12,12,12,12,12,12,12,12,12,12,13,13,13,13,13,13,13,13,13,13,13,13,13,13,13,13,13,13,13,13,13,13,13,13,13,13,14,14,14,14,14,14,14,14,14,14,14,14,14,14,15,15,15,15,15,15,15,15,15,15,15,15,15,15,15,16,16,16,16,16,16,16,16,16,16,16,16,16,16,17,17,17,17,17,17,17,17,17,17,17,17,18,18,18,18,18,18,18,18,18,18,18,18,19,19,19,19,19,19,19,19,19,19,19,19,19,20,20,20,20,20,20,20,20,20,20,20,20,20,20,20,20,20,20,20,20,21,21,21,21,21,21,21,21,22,22,22,22,22,22,22,22,22,22,22,22,22,22,22,22,23,23,23,23,23,23,23,23,23,23,24,24,24,24,24,24,24,24,24,24,24,25,25,25,25,25,25,26,26,26,26,26,26,26,26,26,27,27,27,27,27,27,28,28,28,28,28,28,29,29,29,29,29,29,29,30,30,30,30,31,31,31,31,31,31,32,32,32,32,32,33,33,33,33,33,34,34,34,34,34,34,35,35,35,35,35,36,36,37,37,37,38,39,39,40];
unsucc = [3,4,6,8,9,10,4,5,7,8,9,10,11,12,14,15,16,17,18,19,20,21,22,25,26,27,30,5,6,7,11,12,13,17,18,25,6,7,8,9,10,11,15,17,18,20,25,26,28,7,8,9,10,11,12,13,14,15,16,17,18,19,20,21,22,25,26,27,28,30,35,8,9,10,11,12,13,14,16,18,19,21,23,24,27,30,31,11,12,13,15,17,18,25,26,27,28,10,11,12,13,14,15,16,17,18,19,20,21,22,23,24,25,26,27,28,29,31,35,40,11,12,13,15,17,18,21,23,25,26,27,28,31,12,14,15,16,19,21,27,28,30,31,35,14,15,16,17,18,19,20,22,25,26,28,30,33,14,15,16,17,18,19,20,21,22,23,24,25,26,27,28,29,30,31,32,33,34,35,36,38,39,40,15,17,18,20,21,23,25,26,27,28,30,31,33,34,16,17,18,19,20,21,23,24,25,27,30,31,33,37,40,17,18,20,21,23,25,26,27,28,30,31,33,34,40,18,19,21,22,23,24,27,28,29,30,31,35,19,20,21,25,27,28,30,31,33,35,37,40,20,21,22,23,25,26,27,28,30,31,33,34,40,21,22,23,24,25,26,27,28,29,30,31,32,33,34,35,36,37,38,40,41,22,25,26,27,28,30,33,37,23,24,25,26,27,28,29,30,31,32,33,34,35,36,37,40,25,26,27,28,30,31,33,35,37,40,25,26,27,28,30,31,33,34,35,37,40,27,28,29,30,31,35,27,28,29,30,31,33,35,37,40,28,30,33,34,35,37,30,31,33,34,37,40,30,31,33,34,35,37,40,31,32,35,40,32,33,34,35,36,37,33,34,35,37,40,35,36,38,39,40,35,36,37,38,39,40,36,37,38,40,41,37,40,38,39,40,40,40,41,41];

USEFUL_RES = [{},
	{2,3,4,6,7,9,10,11,13,14,15,17,18,20,21,22,23,24,25,26,27,28,29,30},
	{2,3,4,6,7,9,10,11,13,15,17,18,20,21,22,23,24,25,26,27,28,29,30},
	{1,2,3,4,5,6,7,8,9,10,11,12,13,14,15,16,17,18,19,20,21,22,23,24,25,26,27,28,29,30},
	{1,2,3,4,5,6,7,8,12,13,15,16,18,19,20,21,23,24,26,28,29,30},
	{1,2,3,4,5,6,7,8,9,10,11,12,13,14,15,16,17,18,19,20,21,22,23,24,25,26,27,28,29,30},
	{1,2,3,4,5,6,7,8,9,10,11,12,13,14,15,16,17,18,19,20,21,22,23,24,25,26,27,28,29,30},
	{1,2,3,4,5,6,7,8,9,10,11,12,13,14,15,16,17,18,19,20,21,22,23,24,25,26,27,28,29,30},
	{1,2,3,4,5,6,7,8,9,10,11,12,13,14,15,16,17,18,19,20,21,22,23,24,25,26,27,28,29,30},
	{1,2,3,4,5,6,7,8,9,10,12,13,14,15,16,18,19,20,21,22,23,24,26,29,30},
	{1,2,3,4,5,6,7,8,9,10,11,12,13,14,15,16,17,18,19,20,21,22,23,24,25,26,27,28,29,30},
	{1,2,3,4,5,6,7,8,9,10,11,12,13,14,15,16,17,18,19,20,21,22,23,24,25,26,27,28,29,30},
	{2,3,4,6,7,9,10,11,13,14,15,17,20,21,22,23,24,25,26,27,28,29,30},
	{1,2,3,4,5,6,7,8,12,13,15,16,18,19,20,21,23,24,26,28,29,30},
	{1,2,3,4,5,6,7,8,9,10,11,12,13,14,15,16,17,18,19,20,21,22,23,24,25,26,27,28,29,30},
	{1,2,3,4,5,6,7,8,9,10,11,12,13,14,15,16,17,18,19,20,21,22,23,24,25,26,27,28,29,30},
	{1,2,3,4,5,6,7,8,9,10,11,12,13,14,15,16,17,18,19,20,21,22,23,24,25,26,27,28,29,30},
	{2,3,4,6,7,9,10,11,13,14,15,17,20,21,22,23,24,25,26,27,28,29,30},
	{1,2,3,4,5,6,7,8,9,10,12,13,14,15,16,18,19,20,21,22,23,24,26,29,30},
	{1,2,3,4,5,6,7,8,9,10,11,12,13,14,15,16,17,18,19,20,21,22,23,24,25,26,27,28,29,30},
	{1,2,3,4,5,6,7,8,9,10,11,12,13,15,16,17,18,19,20,21,22,23,24,25,26,27,28,29,30},
	{1,2,3,4,5,6,7,8,9,10,11,12,13,14,15,16,17,18,19,20,21,22,23,24,25,26,27,28,29,30},
	{1,3,4,5,6,7,8,9,10,11,12,13,15,16,17,18,19,20,21,22,23,24,25,26,27,28,29,30},
	{1,2,3,4,5,6,7,8,9,10,11,12,13,14,15,16,17,18,19,20,21,22,23,24,25,26,27,28,29,30},
	{1,2,3,4,5,6,7,8,9,10,11,12,13,14,15,16,17,18,19,20,21,22,23,24,25,26,27,28,29,30},
	{1,3,4,5,6,7,8,9,10,11,12,13,15,16,17,18,19,20,21,22,23,24,25,26,27,28,29,30},
	{2,3,4,6,7,9,10,11,13,14,15,17,18,20,21,22,23,24,25,26,27,28,29,30},
	{1,3,4,5,6,7,8,9,10,11,12,13,15,16,17,18,19,20,21,22,23,24,25,26,27,28,29,30},
	{1,2,3,4,5,6,7,8,9,10,11,12,13,14,15,16,17,18,19,20,21,22,23,24,25,26,27,28,29,30},
	{1,3,4,5,6,7,8,9,10,11,12,13,15,16,17,18,19,20,21,22,23,24,25,26,27,28,29,30},
	{1,2,3,4,5,6,7,8,9,10,11,12,13,15,16,17,18,19,20,21,22,23,24,25,26,27,28,29,30},
	{1,2,3,4,5,6,7,8,9,10,11,12,13,14,15,16,17,18,19,20,21,22,23,24,25,26,27,28,29,30},
	{1,2,3,4,5,6,7,8,9,10,12,13,14,15,16,18,19,20,21,22,23,24,26,28,29,30},
	{1,2,3,4,5,6,7,8,9,10,11,12,13,14,15,16,17,18,19,20,21,22,23,24,25,26,27,28,29,30},
	{1,2,3,4,5,6,7,8,9,10,11,12,13,14,15,16,17,18,19,20,21,22,23,24,25,26,27,28,29,30},
	{2,3,4,6,7,9,10,11,13,14,15,17,20,21,22,23,24,25,26,27,28,29,30},
	{1,2,3,4,5,6,7,8,9,10,12,13,14,15,16,18,19,20,21,22,23,24,26,28,29,30},
	{1,2,3,4,5,6,7,8,9,10,11,12,13,15,16,17,18,19,20,21,22,23,24,25,26,27,28,29,30},
	{2,3,4,6,7,9,10,11,13,14,15,17,18,20,21,22,23,24,25,26,27,28,29,30},
	{1,2,3,4,5,6,7,8,9,10,12,13,14,15,16,18,19,20,21,22,23,24,26,28,29,30},
	{2,3,4,6,7,9,10,13,14,15,18,20,21,22,23,24,26,28,30},
	{}];

POTENTIAL_ACT = [{4,5,6,7,8,9,10,11,12,14,15,16,17,19,20,21,22,23,24,25,26,28,29,30,31,32,33,34,35,37,38,40},
	{2,3,4,5,6,7,8,9,10,11,12,13,14,15,16,17,18,19,20,21,22,24,25,27,29,31,32,33,34,35,36,37,38,39,40,41},
	{2,3,4,5,6,7,8,9,10,11,12,13,14,15,16,17,18,19,20,21,22,23,24,25,26,27,28,29,30,31,32,33,34,35,36,37,38,39,40,41},
	{2,3,4,5,6,7,8,9,10,11,12,13,14,15,16,17,18,19,20,21,22,23,24,25,26,27,28,29,30,31,32,33,34,35,36,37,38,39,40,41},
	{4,5,6,7,8,9,10,11,12,14,15,16,17,19,20,21,22,23,24,25,26,28,29,30,31,32,33,34,35,37,38,40},
	{2,3,4,5,6,7,8,9,10,11,12,13,14,15,16,17,18,19,20,21,22,23,24,25,26,27,28,29,30,31,32,33,34,35,36,37,38,39,40,41},
	{2,3,4,5,6,7,8,9,10,11,12,13,14,15,16,17,18,19,20,21,22,23,24,25,26,27,28,29,30,31,32,33,34,35,36,37,38,39,40,41},
	{4,5,6,7,8,9,10,11,12,14,15,16,17,19,20,21,22,23,24,25,26,28,29,30,31,32,33,34,35,37,38,40},
	{2,3,4,6,7,8,9,10,11,12,13,15,16,17,18,19,20,21,22,23,24,25,26,27,28,29,30,31,32,33,34,35,36,37,38,39,40,41},
	{2,3,4,6,7,8,9,10,11,12,13,15,16,17,18,19,20,21,22,23,24,25,26,27,28,29,30,31,32,33,34,35,36,37,38,39,40,41},
	{2,3,4,6,7,8,9,11,12,13,15,16,17,18,20,21,22,23,24,25,26,27,28,29,30,31,32,34,35,36,38,39},
	{4,5,6,7,8,9,10,11,12,14,15,16,17,19,20,21,22,23,24,25,26,28,29,30,31,32,33,34,35,37,38,40},
	{2,3,4,5,6,7,8,9,10,11,12,13,14,15,16,17,18,19,20,21,22,23,24,25,26,27,28,29,30,31,32,33,34,35,36,37,38,39,40,41},
	{2,4,6,7,8,9,10,11,12,13,15,16,17,18,19,20,22,24,25,27,29,32,33,34,35,36,37,39,40,41},
	{2,3,4,5,6,7,8,9,10,11,12,13,14,15,16,17,18,19,20,21,22,23,24,25,26,27,28,29,30,31,32,33,34,35,36,37,38,39,40,41},
	{4,5,6,7,8,9,10,11,12,14,15,16,17,19,20,21,22,23,24,25,26,28,29,30,31,32,33,34,35,37,38,40},
	{2,3,4,6,7,8,9,11,12,13,15,16,17,18,20,21,22,23,24,25,26,27,28,29,30,31,32,34,35,36,38,39},
	{2,3,4,5,6,7,8,9,10,11,12,14,15,16,17,19,20,21,22,23,24,25,26,27,28,29,30,31,32,33,34,35,37,38,39,40,41},
	{4,5,6,7,8,9,10,11,12,14,15,16,17,19,20,21,22,23,24,25,26,28,29,30,31,32,33,34,35,37,38,40},
	{2,3,4,5,6,7,8,9,10,11,12,13,14,15,16,17,18,19,20,21,22,23,24,25,26,27,28,29,30,31,32,33,34,35,36,37,38,39,40,41},
	{2,3,4,5,6,7,8,9,10,11,12,13,14,15,16,17,18,19,20,21,22,23,24,25,26,27,28,29,30,31,32,33,34,35,36,37,38,39,40,41},
	{2,3,4,6,7,8,9,10,11,12,13,15,16,17,18,19,20,21,22,23,24,25,26,27,28,29,30,31,32,33,34,35,36,37,38,39,40,41},
	{2,3,4,5,6,7,8,9,10,11,12,13,14,15,16,17,18,19,20,21,22,23,24,25,26,27,28,29,30,31,32,33,34,35,36,37,38,39,40,41},
	{2,3,4,5,6,7,8,9,10,11,12,13,14,15,16,17,18,19,20,21,22,23,24,25,26,27,28,29,30,31,32,33,34,35,36,37,38,39,40,41},
	{2,3,4,6,7,8,9,11,12,13,15,16,17,18,20,21,22,23,24,25,26,27,28,29,30,31,32,34,35,36,38,39},
	{2,3,4,5,6,7,8,9,10,11,12,13,14,15,16,17,18,19,20,21,22,23,24,25,26,27,28,29,30,31,32,33,34,35,36,37,38,39,40,41},
	{2,3,4,6,7,8,9,11,12,13,15,16,17,18,20,21,22,23,24,25,26,27,28,29,30,31,32,34,35,36,38,39},
	{2,3,4,5,6,7,8,9,11,12,13,14,15,16,17,18,20,21,22,23,24,25,26,27,28,29,30,31,32,33,34,35,36,37,38,39,40,41},
	{2,3,4,5,6,7,8,9,10,11,12,13,14,15,16,17,18,19,20,21,22,23,24,25,26,27,28,29,30,31,32,33,34,35,36,37,38,39,40},
	{2,3,4,5,6,7,8,9,10,11,12,13,14,15,16,17,18,19,20,21,22,23,24,25,26,27,28,29,30,31,32,33,34,35,36,37,38,39,40,41}];
